SimulationType                MonteCarlo
NumberOfCycles                2000
PrintEvery                    100
PrintPropertiesEvery          100

Forcefield                    UFF
#UseChargesFromCIFFile        yes

Framework 0
FrameworkName {cif_name}
CutOffVDW {cutoff}
UnitCells {unitcell}

SurfaceAreaProbeDistance  Sigma


Component 0 MoleculeName             N2
            MoleculeDefinition       ExampleDefinitions
            SurfaceAreaProbability   1.0
            CreateNumberOfMolecules  0
