SimulationType                MonteCarlo
NumberOfCycles                10000
NumberOfInitializationCycles  0
PrintEvery                    100
RestartFile                   no

Forcefield                    UFF
UseChargesFromCIFFile         yes

Framework 0
FrameworkName {cif_name}
CutOffVDW {cutoff}
UnitCells {unitcell}
ExternalTemperature 298

Component 0 MoleculeName             CO2
            MoleculeDefinition       TraPPE
            IdealGasRosenbluthWeight 1.0
            WidomProbability         1.0
            CreateNumberOfMolecules  0
Component 1 MoleculeName             N2
            MoleculeDefinition       TraPPE
            IdealGasRosenbluthWeight 1.0
            WidomProbability         1.0
            CreateNumberOfMolecules  0 
                               