SimulationType                MonteCarlo
NumberOfCycles                10000
PrintEvery                    1000
PrintPropertiesEvery          1000

Forcefield                    UFF
UseChargesFromCIFFile         yes

Framework 0
FrameworkName {cif_name}
CutOffVDW {cutoff}
UnitCells {unitcell}

ExternalTemperature 298.0


Component 0 MoleculeName             helium
            MoleculeDefinition       TraPPE
            WidomProbability         1.0
            CreateNumberOfMolecules  0
