SimulationType                MonteCarlo
NumberOfCycles                1000
PrintEvery                    1000
PrintPropertiesEvery          1000

Forcefield                    UFF
UseChargesFromCIFFile         yes

Framework 0
FrameworkName {cif_name}
CutOffVDW {cutoff}
UnitCells {unitcell}


ExternalTemperature 300.0
ExternalPressure 100000


Component 0 MoleculeName             CO2
            MoleculeDefinition       TraPPE
            IdealGasRosenbluthWeight 1.0
            WidomProbability         1.0
            CreateNumberOfMolecules  0
            